n_res = 4;
rc = [ 10, 13, 14, 21 ];
n_tasks = 30;
d = [ 1, 6, 4, 8, 4, 1, 4, 3, 10, 3, 3, 1, 7, 4, 10, 3, 6, 4, 5, 5, 9, 4, 9, 2, 6, 9, 10, 2, 6, 9 ];
rr = [| 0, 3, 6, 8, 0, 0, 0, 0, 0, 0, 9, 0, 0, 0, 0, 0, 0, 0, 0, 0, 0, 0, 0, 0, 0, 0, 0, 0, 0, 0
      | 0, 0, 0, 0, 0, 0, 0, 9, 0, 0, 0, 8, 0, 0, 0, 7, 1, 9, 0, 4, 0, 0, 0, 0, 2, 0, 1, 5, 1, 0
      | 0, 0, 0, 0, 0, 6, 0, 0, 7, 0, 0, 0, 0, 0, 0, 0, 0, 0, 0, 0, 8, 8, 1, 0, 0, 8, 0, 0, 0, 0
      | 7, 0, 0, 0, 7, 0, 3, 0, 0, 8, 0, 0, 10, 1, 10, 0, 0, 0, 8, 0, 0, 0, 0, 6, 0, 0, 0, 0, 0, 2 |];
suc = [ { 2 }, 
        { 1 }, 
        { 4 }, 
        { 3 }, 
        { 6 }, 
        { 5 }, 
        { 8 }, 
        { 7 }, 
        { 10 }, 
        { 9 }, 
        { 12 }, 
        { 11 }, 
        { 14 }, 
        { 13 }, 
        { 16 }, 
        { 15 }, 
        { 18 }, 
        { 17 }, 
        { 20 }, 
        { 19 }, 
        { 22 }, 
        { 21 }, 
        { 24 }, 
        { 23 }, 
        { 26 }, 
        { 25 }, 
        { 28 }, 
        { 27 }, 
        { 30 }, 
        { 29 }]; 
